p cnf 7230 17
-3352 -4970 5354 0
3352 -5354 0
-2762 -4972 -5355 0
2762 -5356 0
5359 5360 0
4996 -5360 0
-4996 -5359 0
5357 5358 0
4994 -5358 0
-4994 -5357 0
5355 5356 0
4972 -5356 0
-4406 -5050 5362 0
5050 -5362 0
4406 -5362 0
5353 5354 0
-5353 -5354 0
